50
1000
492
491
485
480
467
463
458
455
451
446
437
422
421
416
409
406
404
387
385
379
354
343
336
332
323
316
309
301
290
288
284
281
275
255
253
244
243
229
227
223
223
215
214
211
208
203
203
185
176
167
